Running HiGHS 1.12.0 (git hash: n/a): Copyright (c) 2025 HiGHS under MIT licence terms
Set option solver to "simplex"
Set option parallel to "off"
Set option time_limit to 600
Set option simplex_strategy to 4
Set option log_file to "HiGHS.log"
MIP proteindesign121hz512p9 has 301 rows; 159145 cols; 629449 nonzeros; 159145 integer variables (159054 binary)
Coefficient ranges:
  Matrix  [1e+00, 4e+04]
  Cost    [1e+00, 1e+00]
  Bound   [1e+00, 4e+04]
  RHS     [1e+00, 1e+00]
Presolving model
301 rows, 78360 cols, 308287 nonzeros  0s
223 rows, 78282 cols, 246730 nonzeros  8s
Presolve reductions: rows 223(-78); columns 78282(-80863); nonzeros 246730(-382719) 
Objective function is integral with scale 1

Solving MIP model with:
   223 rows
   78282 cols (78269 binary, 13 integer, 0 implied int., 0 continuous, 0 domain fixed)
   246730 nonzeros

Src: B => Branching; C => Central rounding; F => Feasibility pump; H => Heuristic;
     I => Shifting; J => Feasibility jump; L => Sub-MIP; P => Empty MIP; R => Randomized rounding;
     S => Solve LP; T => Evaluate node; U => Unbounded; X => User solution; Y => HiGHS solution;
     Z => ZI Round; l => Trivial lower; p => Trivial point; u => Trivial upper; z => Trivial zero

        Nodes      |    B&B Tree     |            Objective Bounds              |  Dynamic Constraints |       Work      
Src  Proc. InQueue |  Leaves   Expl. | BestBound       BestSol              Gap |   Cuts   InLp Confl. | LpIters     Time

         0       0         0   0.00%   0               inf                  inf        0      0      0         0     9.6s
         0       0         0   0.00%   1423.904449     inf                  inf        0      0      2       598     9.9s
         0       0         0   0.00%   1433.759464     inf                  inf     1638    262     32      1668    28.9s
         0       0         0   0.00%   1436.857752     inf                  inf     2994    411     72      4846    34.1s
 L       0       0         0   0.00%   1436.963873     1624              11.52%     3281    388    102     11099    63.9s

1.6% inactive integer columns, restarting
Model after restart has 223 rows, 77066 cols (77053 bin., 13 int., 0 impl., 0 cont., 0 dom.fix.), and 241918 nonzeros

         0       0         0   0.00%   1437.001466     1624              11.51%      188      0      0     16463    83.5s
         0       0         0   0.00%   1437.001466     1624              11.51%      188    133      2     17665    84.1s
         0       0         0   0.00%   1437.264077     1624              11.50%      517    262      2     18605    89.2s
         0       0         0   0.00%   1437.909881     1624              11.46%     1100    291      2     20971    94.4s
         0       0         0   0.00%   1437.909881     1624              11.46%     1100    191      2     26105   104.4s

Symmetry detection completed in 0.0s
No symmetry present

        40       3         9   3.13%   1437.909881     1624              11.46%     1104    191    329     30715   109.7s
 T      60       3        19   3.13%   1437.909881     1547               7.05%     1107    191    402     30862   110.8s
 T      76       6        25   3.13%   1437.909881     1542               6.75%     1110    191    456     31224   112.7s
       126      26        38   3.13%   1437.909881     1542               6.75%     1280    275    979     37447   121.4s
 T     152      23        50   3.13%   1437.909881     1541               6.69%     1283    275   1358     37665   123.2s
 T     160      19        54   3.13%   1437.909881     1522               5.52%     1283    275   1626     37683   125.2s
 T     169      19        59   3.13%   1437.909881     1521               5.46%     1285    275   1711     37775   126.0s
       232      44        76   3.13%   1437.922532     1521               5.46%     1354    312   2130     44784   135.7s
       290      46       102   3.13%   1437.922532     1521               5.46%     1367    312   2557     45489   140.8s
 T     292      46       103   3.13%   1437.922532     1520               5.40%     1367    312   2561     45490   140.9s

        Nodes      |    B&B Tree     |            Objective Bounds              |  Dynamic Constraints |       Work      
Src  Proc. InQueue |  Leaves   Expl. | BestBound       BestSol              Gap |   Cuts   InLp Confl. | LpIters     Time

       327      79       108   3.13%   1437.942117     1520               5.40%     1469    272   2847     51823   149.7s
       376      79       128   3.13%   1437.942117     1520               5.40%     1474    272   3444     52513   154.9s
 T     385      78       133   3.13%   1437.942117     1519               5.34%     1475    272   3566     52578   156.2s
       404     107       141   3.13%   1438.139288     1519               5.32%     1642    298   4191    102486   259.4s
 T     407     102       142   3.13%   1438.139288     1504               4.38%     1642    298   4281    102514   260.1s
 T     423     100       149   3.13%   1438.139288     1502               4.25%     1714    328   4388    102692   262.5s
       469     102       168   3.13%   1438.139288     1502               4.25%     1869    375   4884    103982   267.6s
       521     100       186   3.13%   1438.139288     1502               4.25%     2035    241   5463    107975   274.4s
       567     102       203   3.13%   1438.139288     1502               4.25%     2041    241   5823    108902   280.1s
 T     589     102       214   3.13%   1438.139288     1501               4.19%     2044    241   5993    109110   282.3s
       629     125       235   3.13%   1438.139288     1501               4.19%     2402    124   6249    110217   289.3s
       656     121       248   3.13%   1438.139288     1501               4.19%     2582    192   6654    111474   295.7s
 T     665     120       253   3.13%   1438.139288     1499               4.06%     2570    198   6814    111626   297.3s
       683     119       256   3.13%   1438.139288     1499               4.06%     3673    419   7121    116058   304.7s
       732     121       273   3.13%   1438.139288     1499               4.06%     3677    419   7769    116957   309.7s
       789     146       291   3.13%   1438.139288     1499               4.06%     3737    448   8510    121237   316.6s
       831     146       311   3.13%   1438.139288     1499               4.06%     3742    448   9105    122138   321.7s
       871     169       329   3.13%   1438.139288     1499               4.06%     4011    242   9350    123611   329.5s
       885     167       334   3.13%   1438.139288     1499               4.06%     4308    174   9593    125264   334.8s
       897     166       339   3.13%   1438.139288     1499               4.06%     4459    224   9757    126577   339.9s

        Nodes      |    B&B Tree     |            Objective Bounds              |  Dynamic Constraints |       Work      
Src  Proc. InQueue |  Leaves   Expl. | BestBound       BestSol              Gap |   Cuts   InLp Confl. | LpIters     Time

       927     166       354   3.13%   1438.139288     1499               4.06%     4464    224   9981    127296   345.1s
       952     168       365   3.13%   1438.139288     1499               4.06%     4470    224   8377    128255   350.3s
       994     175       381   3.13%   1438.139288     1499               4.06%     4199    230   8962    130878   356.9s
      1031     174       393   3.13%   1438.139288     1499               4.06%     4177    266   9246    135462   363.4s
      1087     175       415   3.13%   1438.139288     1499               4.06%     4184    266   9597    138071   368.9s
      1126     190       435   3.13%   1438.139288     1499               4.06%     4337    355   9896    140552   376.3s
      1162     190       450   3.13%   1438.139288     1499               4.06%     4338    355   8472    142072   381.7s
      1194     190       468   3.13%   1438.139288     1499               4.06%     4340    355   9179    142647   386.9s
      1225     194       483   3.13%   1438.139288     1499               4.06%     4604    355   9850    144391   392.7s
      1252     193       494   3.13%   1438.139288     1499               4.06%     4579    438   9645    145906   397.9s
 T    1254     182       495   3.13%   1438.139288     1495               3.80%     4580    438   9684    145946   398.8s
 T    1257     177       497   3.14%   1438.139288     1494               3.74%     4581    438   9709    145982   399.9s
 T    1274     173       506   3.16%   1438.139288     1493               3.67%     4583    438   9838    146631   403.0s
      1293     172       512   3.16%   1438.139288     1493               3.67%     4626    305   9327    150592   409.3s
      1358     175       539   3.16%   1438.139288     1493               3.67%     4631    305   9821    152274   414.4s
      1384     196       549   3.16%   1438.139288     1493               3.67%     4648    322   9914    153010   420.0s
 T    1386     190       550   3.23%   1438.139288     1492               3.61%     4395    339   9047    153162   422.4s
      1413     189       555   3.23%   1438.139288     1492               3.61%     4442    268   9546    158220   427.5s
      1488     213       588   3.23%   1438.139288     1492               3.61%     4447    268   9970    159626   433.0s
      1495     210       593   3.23%   1438.139288     1492               3.61%     4563    320   9655    160477   438.3s

        Nodes      |    B&B Tree     |            Objective Bounds              |  Dynamic Constraints |       Work      
Src  Proc. InQueue |  Leaves   Expl. | BestBound       BestSol              Gap |   Cuts   InLp Confl. | LpIters     Time

      1498     207       596   3.23%   1438.139288     1492               3.61%     4626    285   9736    161519   443.4s
 T    1512     205       602   3.23%   1438.139288     1491               3.55%     4699    309   9907    162088   446.1s
      1518     204       607   3.23%   1438.139288     1491               3.55%     4765    347   9989    162482   451.2s
      1553     204       614   3.24%   1438.139288     1491               3.55%     4763    267   9528    167294   456.2s
      1619     228       645   3.24%   1438.139288     1491               3.55%     4768    267   9998    168666   462.5s
      1640     227       654   3.24%   1438.139288     1491               3.55%     5110    415   8864    171032   467.5s
      1675     228       670   3.24%   1438.139288     1491               3.55%     5115    415   9247    171921   472.5s
      1723     227       696   3.24%   1438.139288     1491               3.55%     4989    436   9578    173210   477.6s
      1781     227       723   3.24%   1438.139288     1491               3.55%     4233    315   9816    174902   482.6s
      1825     230       745   3.24%   1438.139288     1491               3.55%     4202    197   9819    175829   487.7s
      1843     227       756   3.24%   1438.139288     1491               3.55%     3615    411   9056    225970   603.1s
      1843     227       756   3.24%   1438.139288     1491               3.55%     3615    411   9056    225970   603.1s

Solving report
  Model             proteindesign121hz512p9
  Status            Time limit reached
  Primal bound      1491
  Dual bound        1439
  Gap               3.49% (tolerance: 0.01%)
  P-D integral      26.5648210258
  Solution status   feasible
                    1491 (objective)
                    0 (bound viol.)
                    3.01989544482e-11 (int. viol.)
                    0 (row viol.)
  Timing            603.07
  Max sub-MIP depth 3
  Nodes             1843
  Repair LPs        0
  LP iterations     225970
                    0 (strong br.)
                    25437 (separation)
                    107534 (heuristics)
Model name          : proteindesign121hz512p9
Model status        : Time limit reached
Simplex   iterations: 225970
IPM       iterations: -1
Crossover iterations: -1
PDLP      iterations: -1
QP ASM    iterations: -1
Objective value     :  1.4910000000e+03
HiGHS run time      :        603.39
